(set-logic LIA)
(synth-fun next ((prev_inp.temp Int) (rangeLow Int) (rangeHigh Int) (desiredTemperature Int) (allowedError Int) (out.heatingTimer Int) (heatingTimeout Int) ) Int
	((Start Int)  (Var Int) (StartBool Bool))
	((Start Int (
				 1
				 2
				 3
				 (ite StartBool Start Start)))

	(Var Int (
			 prev_inp.temp
			 rangeLow
			 rangeHigh
			 desiredTemperature
			 allowedError
			 out.heatingTimer
			 heatingTimeout
			 	(+ Var Var)						
			 	(- Var Var)						
			 	(* Var Var)))

	 (StartBool Bool (
					 (> Var Var)						
					 (>= Var Var)						
					 (< Var Var)						
					 (<= Var Var)						
					 (= Var Var)						
					 (and StartBool StartBool)			
					 (or  StartBool StartBool)				
					 (not StartBool)))))

(constraint (= (next (- 9) 0 100 50 10 0 2 ) 3))
(constraint (= (next 2 0 100 50 10 1 2 ) 3))
(constraint (= (next (- 8) 0 100 50 10 2 2 ) 3))
(constraint (= (next 1 0 100 50 10 3 2 ) 3))
(constraint (= (next 1073741885 0 100 50 10 4 2 ) 2))
(constraint (= (next 60 0 100 50 10 0 2 ) 3))
(constraint (= (next (- 9) 0 100 50 10 0 2 ) 3))
(constraint (= (next 2 0 100 50 10 1 2 ) 3))
(constraint (= (next (- 2056) 0 100 50 10 2 2 ) 3))
(constraint (= (next 1 0 100 50 10 3 2 ) 3))
(constraint (= (next 1073741885 0 100 50 10 4 2 ) 2))
(constraint (= (next 60 0 100 50 10 0 2 ) 3))
(constraint (= (next (- 9) 0 100 50 10 0 2 ) 3))
(constraint (= (next 2 0 100 50 10 1 2 ) 3))
(constraint (= (next (- 2056) 0 100 50 10 2 2 ) 3))
(constraint (= (next 1 0 100 50 10 3 2 ) 3))
(constraint (= (next 1073741885 0 100 50 10 4 2 ) 2))
(constraint (= (next 60 0 100 50 10 0 2 ) 3))
(constraint (= (next (- 9) 0 100 50 10 0 2 ) 3))
(constraint (= (next 2 0 100 50 10 1 2 ) 3))
(constraint (= (next (- 2056) 0 100 50 10 2 2 ) 3))
(constraint (= (next 1 0 100 50 10 3 2 ) 3))
(constraint (= (next 1073741885 0 100 50 10 4 2 ) 2))
(constraint (= (next 60 0 100 50 10 0 2 ) 3))
(constraint (= (next (- 9) 0 100 50 10 0 2 ) 3))
(constraint (= (next 2 0 100 50 10 1 2 ) 3))
(constraint (= (next (- 2056) 0 100 50 10 2 2 ) 3))
(constraint (= (next 1 0 100 50 10 3 2 ) 3))
(constraint (= (next 1073741885 0 100 50 10 4 2 ) 2))
(constraint (= (next (- 9) 0 100 50 10 0 2 ) 3))
(constraint (= (next 2 0 100 50 10 1 2 ) 3))
(constraint (= (next 1073741878 0 100 50 10 2 2 ) 2))
(constraint (= (next (- 9) 0 100 50 10 0 2 ) 3))
(constraint (= (next 2 0 100 50 10 1 2 ) 3))
(constraint (= (next 1073741878 0 100 50 10 2 2 ) 2))
(constraint (= (next 536870914 0 100 50 10 0 2 ) 2))
(constraint (= (next 536870914 0 100 50 10 0 2 ) 2))
(constraint (= (next 98 0 100 50 10 0 2 ) 3))
(constraint (= (next 41 0 100 50 10 1 2 ) 3))
(constraint (= (next 268435493 0 100 50 10 2 2 ) 2))
(constraint (= (next 40 0 100 50 10 0 2 ) 3))
(constraint (= (next 41 0 100 50 10 0 2 ) 3))
(constraint (= (next 37 0 100 50 10 1 2 ) 3))
(constraint (= (next 0 0 100 50 10 2 2 ) 3))
(constraint (= (next 60 0 100 50 10 3 2 ) 1))
(constraint (= (next 0 0 100 50 10 0 2 ) 3))
(constraint (= (next 0 0 100 50 10 1 2 ) 3))
(constraint (= (next 0 0 100 50 10 2 2 ) 3))
(constraint (= (next 0 0 100 50 10 3 2 ) 3))
(constraint (= (next 0 0 100 50 10 4 2 ) 3))
(constraint (= (next 0 0 100 50 10 0 2 ) 3))
(constraint (= (next 0 0 100 50 10 0 2 ) 3))
(constraint (= (next 0 0 100 50 10 1 2 ) 3))
(constraint (= (next 0 0 100 50 10 2 2 ) 3))
(constraint (= (next 62 0 100 50 10 0 2 ) 3))
(constraint (= (next 62 0 100 50 10 1 2 ) 3))
(constraint (= (next 0 0 100 50 10 2 2 ) 3))
(constraint (= (next 0 0 100 50 10 3 2 ) 3))
(constraint (= (next 0 0 100 50 10 4 2 ) 3))
(constraint (= (next 0 0 100 50 10 5 2 ) 3))
(constraint (= (next 0 0 100 50 10 6 2 ) 3))
(constraint (= (next 62 0 100 50 10 0 2 ) 3))
(constraint (= (next 100 0 100 50 10 1 2 ) 3))
(constraint (= (next 0 0 100 50 10 2 2 ) 3))
(constraint (= (next 0 0 100 50 10 3 2 ) 3))
(constraint (= (next 0 0 100 50 10 4 2 ) 3))
(constraint (= (next 0 0 100 50 10 5 2 ) 3))
(constraint (= (next 0 0 100 50 10 6 2 ) 3))
(constraint (= (next (- 2147483546) 0 100 50 10 0 2 ) 3))
(constraint (= (next (- 2147483546) 0 100 50 10 1 2 ) 3))
(constraint (= (next 100 0 100 50 10 2 2 ) 3))
(constraint (= (next 0 0 100 50 10 3 2 ) 3))
(constraint (= (next 0 0 100 50 10 4 2 ) 3))
(constraint (= (next 0 0 100 50 10 5 2 ) 3))
(constraint (= (next (- 2147483546) 0 100 50 10 0 2 ) 3))
(constraint (= (next (- 2147483546) 0 100 50 10 1 2 ) 3))
(constraint (= (next 96 0 100 50 10 2 2 ) 3))
(constraint (= (next 0 0 100 50 10 3 2 ) 3))
(constraint (= (next 0 0 100 50 10 4 2 ) 3))
(constraint (= (next 0 0 100 50 10 5 2 ) 3))
(constraint (= (next (- 2147483546) 0 100 50 10 0 2 ) 3))
(constraint (= (next (- 2147483546) 0 100 50 10 1 2 ) 3))
(constraint (= (next (- 2147483546) 0 100 50 10 2 2 ) 3))
(constraint (= (next 100 0 100 50 10 3 2 ) 1))
(constraint (= (next 0 0 100 50 10 0 2 ) 3))
(constraint (= (next (- 2147483546) 0 100 50 10 0 2 ) 3))
(constraint (= (next (- 2147483546) 0 100 50 10 1 2 ) 3))
(constraint (= (next (- 2147483546) 0 100 50 10 2 2 ) 3))
(constraint (= (next 57 0 100 50 10 3 2 ) 3))
(constraint (= (next 0 0 100 50 10 4 2 ) 3))
(constraint (= (next 0 0 100 50 10 5 2 ) 3))
(constraint (= (next 1073741854 0 100 50 10 0 2 ) 2))
(constraint (= (next (- 2147483546) 0 100 50 10 0 2 ) 3))
(constraint (= (next (- 2147483546) 0 100 50 10 1 2 ) 3))
(constraint (= (next (- 2147483546) 0 100 50 10 2 2 ) 3))
(constraint (= (next 62 0 100 50 10 3 2 ) 1))
(constraint (= (next (- 2147483546) 0 100 50 10 0 2 ) 3))
(constraint (= (next (- 2147483546) 0 100 50 10 1 2 ) 3))
(constraint (= (next (- 2147483546) 0 100 50 10 2 2 ) 3))
(constraint (= (next 62 0 100 50 10 3 2 ) 1))

(check-synth)
